networks/zoo_47_111/zoo_47_111.sol
<?xml version = "1.0" encoding="UTF-8" standalone="yes"?>
<CPLEXSolution version="1.2">
 <header
   problemName="networks/zoo_47_111/zoo_47_111.lp"
   solutionName="incumbent"
   solutionIndex="-1"
   objectiveValue="29"
   solutionTypeValue="3"
   solutionTypeString="primal"
   solutionStatusValue="101"
   solutionStatusString="integer optimal solution"
   solutionMethodString="mip"
   primalFeasible="1"
   dualFeasible="1"
   MIPNodes="0"
   MIPIterations="966"
   writeLevel="3"/>
 <quality
   epInt="1.0000000000000001e-05"
   epRHS="9.9999999999999995e-07"
   maxIntInfeas="0"
   maxPrimalInfeas="0"
   maxX="4"
   maxSlack="10"/>
 <variables>
  <variable name="Y(1,2)" index="1" value="1"/>
  <variable name="Y(2,23)" index="62" value="1"/>
  <variable name="Y(8,12)" index="304" value="1"/>
  <variable name="Y(9,13)" index="347" value="1"/>
  <variable name="Y(25,18)" index="1023" value="1"/>
  <variable name="Y(32,10)" index="1310" value="1"/>
  <variable name="Y(33,19)" index="1360" value="1"/>
  <variable name="Y(36,20)" index="1487" value="1"/>
  <variable name="Y(38,21)" index="1572" value="1"/>
  <variable name="Y(39,19)" index="1612" value="1"/>
  <variable name="Y(40,21)" index="1656" value="1"/>
  <variable name="Y(42,16)" index="1735" value="1"/>
  <variable name="Y(43,18)" index="1779" value="1"/>
  <variable name="Y(45,4)" index="1851" value="1"/>
  <variable name="Y(47,9)" index="1939" value="1"/>
  <variable name="Y(54,2)" index="2227" value="1"/>
  <variable name="Y(56,24)" index="2331" value="1"/>
  <variable name="Y(60,10)" index="2486" value="1"/>
  <variable name="Y(61,11)" index="2529" value="1"/>
  <variable name="Y(65,17)" index="2702" value="1"/>
  <variable name="Y(69,22)" index="2875" value="1"/>
  <variable name="Y(71,1)" index="2940" value="1"/>
  <variable name="Y(75,5)" index="3112" value="1"/>
  <variable name="Y(76,6)" index="3155" value="1"/>
  <variable name="Y(82,15)" index="3414" value="1"/>
  <variable name="Y(84,20)" index="3503" value="1"/>
  <variable name="Y(90,3)" index="3740" value="1"/>
  <variable name="Y(92,9)" index="3829" value="1"/>
  <variable name="Y(93,16)" index="3877" value="1"/>
  <variable name="X(1,2,1)" index="4662" value="1"/>
  <variable name="X(1,20,2)" index="4774" value="1"/>
  <variable name="X(1,25,71)" index="4954" value="1"/>
  <variable name="X(2,19,1)" index="4995" value="1"/>
  <variable name="X(2,26,54)" index="5159" value="1"/>
  <variable name="X(3,13,9)" index="5225" value="1"/>
  <variable name="X(3,20,36)" index="5363" value="1"/>
  <variable name="X(3,27,90)" index="5528" value="1"/>
  <variable name="X(4,16,93)" index="5642" value="1"/>
  <variable name="X(4,23,8)" index="5668" value="1"/>
  <variable name="X(4,24,9)" index="5780" value="1"/>
  <variable name="X(4,28,45)" index="5927" value="1"/>
  <variable name="X(5,19,39)" index="6032" value="1"/>
  <variable name="X(5,24,56)" index="6160" value="1"/>
  <variable name="X(5,29,75)" index="6290" value="1"/>
  <variable name="X(6,9,25)" index="6351" value="1"/>
  <variable name="X(6,10,60)" index="6497" value="1"/>
  <variable name="X(6,19,33)" index="6581" value="1"/>
  <variable name="X(6,30,76)" index="6735" value="1"/>
  <variable name="X(7,17,65)" index="6835" value="1"/>
  <variable name="X(7,18,43)" index="6924" value="1"/>
  <variable name="X(9,6,76)" index="7068" value="1"/>
  <variable name="X(9,10,47)" index="7150" value="1"/>
  <variable name="X(9,18,25)" index="7239" value="1"/>
  <variable name="X(9,33,92)" index="7417" value="1"/>
  <variable name="X(10,6,33)" index="7469" value="1"/>
  <variable name="X(10,9,32)" index="7579" value="1"/>
  <variable name="X(10,34,60)" index="7718" value="1"/>
  <variable name="X(11,35,61)" index="7830" value="1"/>
  <variable name="X(12,13,90)" index="7970" value="1"/>
  <variable name="X(12,21,38)" index="8029" value="1"/>
  <variable name="X(12,36,8)" index="8110" value="1"/>
  <variable name="X(13,3,90)" index="8303" value="1"/>
  <variable name="X(13,12,38)" index="8362" value="1"/>
  <variable name="X(13,37,9)" index="8444" value="1"/>
  <variable name="X(15,21,40)" index="8586" value="1"/>
  <variable name="X(15,23,39)" index="8696" value="1"/>
  <variable name="X(15,39,82)" index="8850" value="1"/>
  <variable name="X(16,4,45)" index="8924" value="1"/>
  <variable name="X(16,20,42)" index="9032" value="1"/>
  <variable name="X(16,40,93)" index="9194" value="1"/>
  <variable name="X(17,7,43)" index="9255" value="1"/>
  <variable name="X(17,41,65)" index="9388" value="1"/>
  <variable name="X(18,7,65)" index="9499" value="1"/>
  <variable name="X(18,9,92)" index="9637" value="1"/>
  <variable name="X(18,19,43)" index="9699" value="1"/>
  <variable name="X(18,20,69)" index="9836" value="1"/>
  <variable name="X(18,42,25)" index="9903" value="1"/>
  <variable name="X(19,2,54)" index="10043" value="1"/>
  <variable name="X(19,5,33)" index="10133" value="1"/>
  <variable name="X(19,6,60)" index="10271" value="1"/>
  <variable name="X(19,18,65)" index="10387" value="1"/>
  <variable name="X(19,43,39)" index="10472" value="1"/>
  <variable name="X(20,1,71)" index="10615" value="1"/>
  <variable name="X(20,3,9)" index="10664" value="1"/>
  <variable name="X(20,16,45)" index="10811" value="1"/>
  <variable name="X(20,17,84)" index="10961" value="1"/>
  <variable name="X(20,18,92)" index="11080" value="1"/>
  <variable name="X(20,22,69)" index="11168" value="1"/>
  <variable name="X(20,24,2)" index="11212" value="1"/>
  <variable name="X(20,44,36)" index="11357" value="1"/>
  <variable name="X(21,12,8)" index="11440" value="1"/>
  <variable name="X(21,15,82)" index="11625" value="1"/>
  <variable name="X(21,22,92)" index="11746" value="1"/>
  <variable name="X(21,23,38)" index="11803" value="1"/>
  <variable name="X(21,45,40)" index="11916" value="1"/>
  <variable name="X(22,11,61)" index="12048" value="1"/>
  <variable name="X(22,20,92)" index="12190" value="1"/>
  <variable name="X(22,21,82)" index="12291" value="1"/>
  <variable name="X(22,46,69)" index="12389" value="1"/>
  <variable name="X(23,4,93)" index="12524" value="1"/>
  <variable name="X(23,21,8)" index="12550" value="1"/>
  <variable name="X(23,24,39)" index="12692" value="1"/>
  <variable name="X(23,47,2)" index="12766" value="1"/>
  <variable name="X(24,4,56)" index="12931" value="1"/>
  <variable name="X(24,5,39)" index="13025" value="1"/>
  <variable name="X(24,20,9)" index="13106" value="1"/>
  <variable name="X(24,23,2)" index="13210" value="1"/>
  <variable name="C(1,2)" index="13321" value="1"/>
  <variable name="C(2,20)" index="13324" value="1"/>
  <variable name="C(2,24)" index="13325" value="2"/>
  <variable name="C(2,23)" index="13326" value="3"/>
  <variable name="C(8,23)" index="13351" value="1"/>
  <variable name="C(8,21)" index="13352" value="2"/>
  <variable name="C(8,12)" index="13353" value="3"/>
  <variable name="C(9,24)" index="13355" value="1"/>
  <variable name="C(9,20)" index="13356" value="2"/>
  <variable name="C(9,3)" index="13357" value="3"/>
  <variable name="C(9,13)" index="13358" value="4"/>
  <variable name="C(25,9)" index="13409" value="1"/>
  <variable name="C(25,18)" index="13410" value="2"/>
  <variable name="C(33,6)" index="13442" value="1"/>
  <variable name="C(33,19)" index="13443" value="2"/>
  <variable name="C(36,20)" index="13460" value="1"/>
  <variable name="C(38,12)" index="13465" value="1"/>
  <variable name="C(38,21)" index="13466" value="2"/>
  <variable name="C(39,23)" index="13469" value="1"/>
  <variable name="C(39,24)" index="13470" value="2"/>
  <variable name="C(39,5)" index="13471" value="3"/>
  <variable name="C(39,19)" index="13472" value="4"/>
  <variable name="C(40,21)" index="13474" value="1"/>
  <variable name="C(43,7)" index="13482" value="1"/>
  <variable name="C(43,18)" index="13483" value="2"/>
  <variable name="C(45,16)" index="13490" value="1"/>
  <variable name="C(45,4)" index="13491" value="2"/>
  <variable name="C(54,2)" index="13517" value="1"/>
  <variable name="C(56,24)" index="13524" value="1"/>
  <variable name="C(60,6)" index="13534" value="1"/>
  <variable name="C(60,10)" index="13535" value="2"/>
  <variable name="C(61,11)" index="13540" value="1"/>
  <variable name="C(65,18)" index="13557" value="1"/>
  <variable name="C(65,7)" index="13558" value="2"/>
  <variable name="C(65,17)" index="13559" value="3"/>
  <variable name="C(69,20)" index="13572" value="1"/>
  <variable name="C(69,22)" index="13573" value="2"/>
  <variable name="C(71,1)" index="13579" value="1"/>
  <variable name="C(76,6)" index="13594" value="1"/>
  <variable name="C(82,21)" index="13614" value="1"/>
  <variable name="C(82,15)" index="13615" value="2"/>
  <variable name="C(90,13)" index="13635" value="1"/>
  <variable name="C(90,3)" index="13636" value="2"/>
  <variable name="C(92,22)" index="13641" value="1"/>
  <variable name="C(92,20)" index="13642" value="2"/>
  <variable name="C(92,18)" index="13643" value="3"/>
  <variable name="C(92,9)" index="13644" value="4"/>
  <variable name="C(93,4)" index="13647" value="1"/>
  <variable name="C(93,16)" index="13648" value="2"/>
 </variables>
</CPLEXSolution>
